50
100
100
99
97
97
97
93
93
92
92
88
83
83
79
76
76
75
72
71
70
69
67
66
63
62
62
61
61
51
50
44
44
43
43
40
39
37
37
30
23
20
19
18
17
15
14
13
13
12
8
8
